
Gurobi 11.0.3 (linux64) logging started Wed 20 Nov 2024 01:53:43 PM CST

Set parameter LogFile to value "/home/dlcole3/graph_abstraction/hierarchical_graphs/git_storage/CS1/HP_low_reserves/gurobi_logs/monolith/logfile18.log"
Set parameter NodefileStart to value 0.0005
Set parameter TimeLimit to value 7200

Gurobi 11.0.3 (linux64) logging started Wed 20 Nov 2024 01:54:26 PM CST

Set parameter LogFile to value "/home/dlcole3/graph_abstraction/hierarchical_graphs/git_storage/CS1/HP_low_reserves/gurobi_logs/monolith/logfile18.log"
Set parameter TimeLimit to value 7200
Gurobi Optimizer version 11.0.3 build v11.0.3rc0 (linux64 - "Ubuntu 18.04.3 LTS")

CPU model: Intel(R) Xeon(R) CPU E5-2698 v4 @ 2.20GHz, instruction set [SSE2|AVX|AVX2]
Thread count: 40 physical cores, 80 logical processors, using up to 20 threads

Optimize a model with 1105538 rows, 641709 columns and 4646693 nonzeros
Model fingerprint: 0xd9f20dea
Variable types: 599982 continuous, 41727 integer (41727 binary)
Coefficient statistics:
  Matrix range     [5e-02, 2e+04]
  Objective range  [2e-01, 8e+04]
  Bounds range     [5e-02, 2e+05]
  RHS range        [8e-20, 7e+03]
Presolve removed 252348 rows and 115040 columns (presolve time = 5s) ...
Presolve removed 261589 rows and 115940 columns (presolve time = 10s) ...
Presolve removed 264929 rows and 117018 columns (presolve time = 15s) ...
Presolve removed 265336 rows and 117220 columns (presolve time = 20s) ...
Presolve removed 265430 rows and 117220 columns (presolve time = 25s) ...
Presolve removed 265450 rows and 117290 columns (presolve time = 30s) ...
Sparsify removed 131982 nonzeros (3%)
Presolve removed 265450 rows and 199462 columns (presolve time = 35s) ...
Presolve removed 265450 rows and 116224 columns
Presolve time: 35.04s
Presolved: 840088 rows, 525485 columns, 4497034 nonzeros
Variable types: 485407 continuous, 40078 integer (40007 binary)

Deterministic concurrent LP optimizer: primal simplex, dual simplex, and barrier
Showing barrier log only...

Root barrier log...

Elapsed ordering time = 5s
Elapsed ordering time = 10s
Elapsed ordering time = 37s
Elapsed ordering time = 42s
Elapsed ordering time = 46s
Elapsed ordering time = 50s
Elapsed ordering time = 55s
Elapsed ordering time = 64s
Elapsed ordering time = 66s
Elapsed ordering time = 70s
Elapsed ordering time = 75s
Elapsed ordering time = 91s
Elapsed ordering time = 96s
Elapsed ordering time = 100s
Elapsed ordering time = 105s
Elapsed ordering time = 110s
Ordering time: 114.24s

Barrier statistics:
 Dense cols : 318
 AA' NZ     : 4.855e+07
 Factor NZ  : 5.500e+08 (roughly 5.0 GB of memory)
 Factor Ops : 3.294e+12 (roughly 12 seconds per iteration)
 Threads    : 17

                  Objective                Residual
Iter       Primal          Dual         Primal    Dual     Compl     Time
   0  -2.18852631e+11 -1.80403710e+13  1.27e+04 2.04e+04  1.14e+08   173s
   1  -1.47696313e+11 -1.50780916e+13  9.34e+03 1.67e+05  8.10e+07   179s
   2  -1.03969121e+11 -1.18777982e+13  6.90e+03 8.03e+04  5.53e+07   184s
   3  -6.00190079e+10 -7.94161627e+12  4.28e+03 2.53e+04  3.23e+07   190s
   4  -2.06004160e+10 -3.40822122e+12  1.74e+03 5.76e+02  1.23e+07   196s
   5  -3.87161852e+09 -1.33136211e+12  6.36e+02 1.05e+03  4.16e+06   203s
   6   3.46720671e+09 -7.60975672e+11  1.82e+02 2.47e+02  1.30e+06   211s
   7   5.35817046e+09 -3.56591405e+11  7.11e+01 2.94e+01  4.64e+05   219s
   8   5.57439565e+09 -1.36066975e+11  2.58e+01 4.18e+00  1.43e+05   227s
   9   3.66276014e+09 -5.38157864e+10  9.24e+00 7.81e-01  4.71e+04   238s
  10   1.42012438e+09 -2.15752047e+10  3.41e+00 2.06e-01  1.62e+04   248s
  11   5.45317964e+08 -9.68080130e+09  1.21e+00 7.68e-02  6.49e+03   258s
  12   2.57799063e+08 -4.14310121e+09  4.49e-01 3.02e-02  2.64e+03   267s
  13   1.45952602e+08 -2.39417343e+09  1.48e-01 1.71e-02  1.47e+03   276s
  14   8.85552229e+07 -6.75964130e+08  1.78e-02 4.92e-03  4.36e+02   285s
  15   8.20635926e+07 -4.10221887e+08  1.09e-02 3.10e-03  2.81e+02   294s
  16   7.45173663e+07 -2.87484433e+08  5.13e-03 2.27e-03  2.06e+02   304s
  17   7.02546329e+07 -1.51317670e+08  3.21e-03 1.38e-03  1.26e+02   314s
  18   6.73310717e+07 -8.34750921e+07  2.30e-03 9.33e-04  8.58e+01   324s
  19   6.16406753e+07 -2.39509604e+07  1.04e-03 5.20e-04  4.87e+01   335s
  20   5.76178425e+07  2.55285644e+07  6.07e-04 1.67e-04  1.83e+01   346s
  21   5.43488292e+07  3.74882380e+07  3.77e-04 8.08e-05  9.60e+00   358s
  22   5.25772822e+07  4.30092850e+07  2.63e-04 3.98e-05  5.45e+00   368s
  23   5.15347134e+07  4.55185293e+07  1.90e-04 2.20e-05  3.43e+00   378s
  24   5.06933411e+07  4.60055631e+07  1.34e-04 1.84e-05  2.67e+00   388s
  25   5.03188568e+07  4.65430362e+07  1.09e-04 1.47e-05  2.15e+00   397s
  26   5.01757955e+07  4.67628199e+07  9.99e-05 1.31e-05  1.94e+00   406s
  27   4.99407486e+07  4.74873266e+07  8.48e-05 8.01e-06  1.40e+00   416s
  28   4.95755156e+07  4.78393641e+07  6.27e-05 5.43e-06  9.89e-01   427s
  29   4.94110548e+07  4.80119151e+07  5.26e-05 4.10e-06  7.97e-01   437s
  30   4.92677993e+07  4.81455416e+07  4.41e-05 3.01e-06  6.39e-01   448s
  31   4.90793541e+07  4.82951026e+07  3.34e-05 1.79e-06  4.47e-01   459s
  32   4.89865492e+07  4.83664025e+07  2.87e-05 1.20e-06  3.54e-01   471s
  33   4.88852193e+07  4.84078496e+07  2.31e-05 8.65e-07  2.72e-01   482s
  34   4.88548187e+07  4.84181928e+07  2.12e-05 7.80e-07  2.49e-01   492s
  35   4.87731096e+07  4.84255413e+07  1.68e-05 7.17e-07  1.98e-01   503s
  36   4.87259536e+07  4.84517868e+07  1.40e-05 5.02e-07  1.56e-01   513s
  37   4.86733438e+07  4.84675424e+07  1.38e-05 3.73e-07  1.17e-01   523s
  38   4.86274884e+07  4.84801638e+07  1.30e-05 2.68e-07  8.40e-02   533s
  39   4.85988808e+07  4.84922727e+07  1.18e-05 1.77e-07  6.08e-02   544s
  40   4.85838336e+07  4.85002522e+07  1.01e-05 1.21e-07  4.77e-02   556s
  41   4.85744948e+07  4.85021330e+07  9.05e-06 1.07e-07  4.13e-02   569s
  42   4.85624712e+07  4.85039380e+07  7.65e-06 9.23e-08  3.34e-02   583s
  43   4.85577077e+07  4.85051100e+07  7.05e-06 8.34e-08  3.00e-02   597s
  44   4.85490252e+07  4.85089759e+07  5.63e-06 5.72e-08  2.29e-02   613s
  45   4.85415938e+07  4.85108789e+07  4.36e-06 4.32e-08  1.75e-02   628s
  46   4.85360635e+07  4.85121231e+07  3.42e-06 3.83e-08  1.37e-02   643s
  47   4.85357750e+07  4.85125093e+07  3.38e-06 3.36e-08  1.33e-02   658s
  48   4.85325882e+07  4.85134563e+07  3.19e-06 2.60e-08  1.09e-02   673s
  49   4.85247583e+07  4.85143057e+07  2.45e-06 2.01e-08  5.96e-03   689s
  50   4.85218679e+07  4.85154076e+07  2.66e-06 1.44e-08  3.69e-03   705s
  51   4.85201709e+07  4.85161851e+07  1.83e-06 1.06e-08  2.27e-03   722s
  52   4.85191591e+07  4.85167451e+07  1.39e-06 6.48e-09  1.38e-03   737s
  53   4.85186459e+07  4.85170234e+07  9.21e-07 7.78e-09  9.26e-04   749s
  54   4.85183698e+07  4.85171562e+07  8.10e-07 4.75e-09  6.92e-04   762s
  55   4.85182100e+07  4.85173412e+07  1.19e-06 1.28e-08  4.96e-04   775s
  56   4.85181244e+07  4.85173582e+07  1.04e-06 7.63e-09  4.37e-04   787s
  57   4.85178715e+07  4.85174115e+07  6.18e-07 6.41e-09  2.62e-04   800s
  58   4.85175819e+07  4.85174945e+07  1.06e-07 6.46e-09  4.98e-05   814s
  59   4.85175318e+07  4.85175229e+07  1.02e-07 9.34e-09  5.09e-06   831s
  60   4.85175299e+07  4.85175236e+07  1.03e-05 3.91e-09  3.77e-06   841s

Barrier solved model in 60 iterations and 841.04 seconds (941.17 work units)
Optimal objective 4.85175299e+07


Root crossover log...

  292249 DPushes remaining with DInf 5.4941880e-01               843s
  179509 DPushes remaining with DInf 4.2048219e+01               847s
  150362 DPushes remaining with DInf 1.9780775e+01               852s
  131082 DPushes remaining with DInf 0.0000000e+00               856s
  115730 DPushes remaining with DInf 0.0000000e+00               861s
   91135 DPushes remaining with DInf 0.0000000e+00               869s
   74997 DPushes remaining with DInf 0.0000000e+00               873s
   65920 DPushes remaining with DInf 0.0000000e+00               877s
   58285 DPushes remaining with DInf 0.0000000e+00               881s
   45625 DPushes remaining with DInf 0.0000000e+00               888s
   39677 DPushes remaining with DInf 0.0000000e+00               892s
   29909 DPushes remaining with DInf 0.0000000e+00               898s
   25847 DPushes remaining with DInf 0.0000000e+00               901s
   19225 DPushes remaining with DInf 0.0000000e+00               906s
   12634 DPushes remaining with DInf 0.0000000e+00               911s
    9059 DPushes remaining with DInf 0.0000000e+00               915s
    7406 DPushes remaining with DInf 0.0000000e+00               921s
    5156 DPushes remaining with DInf 0.0000000e+00               926s
    2526 DPushes remaining with DInf 0.0000000e+00               932s
     929 DPushes remaining with DInf 0.0000000e+00               936s
       0 DPushes remaining with DInf 0.0000000e+00               938s

   91702 PPushes remaining with PInf 2.9167770e-01               939s
   23069 PPushes remaining with PInf 1.3619975e+00               942s
    7869 PPushes remaining with PInf 9.9435593e-01               945s
       0 PPushes remaining with PInf 9.8125000e-01               949s

  Push phase complete: Pinf 9.8125000e-01, Dinf 1.9105590e+02    950s


Root simplex log...

Iteration    Objective       Primal Inf.    Dual Inf.      Time
  244693    4.8517526e+07   0.000000e+00   1.910559e+02    950s
  244708    4.8517526e+07   0.000000e+00   0.000000e+00    953s
  244708    4.8517526e+07   0.000000e+00   0.000000e+00    955s
Waiting for other threads to finish...        1022s
Waiting for other threads to finish...        1088s
Waiting for other threads to finish...        1154s
Waiting for other threads to finish...        1221s
Waiting for other threads to finish...        1287s
Waiting for other threads to finish...        1354s
Waiting for other threads to finish...        1421s
Waiting for other threads to finish...        1487s
Waiting for other threads to finish...        1554s
Waiting for other threads to finish...        1620s
Waiting for other threads to finish...        1687s
Waiting for other threads to finish...        1753s
Waiting for other threads to finish...        1820s
Waiting for other threads to finish...        1886s
Waiting for other threads to finish...        1953s
Waiting for other threads to finish...        2019s
Waiting for other threads to finish...        2086s
Waiting for other threads to finish...        2152s
Concurrent spin time: 1204.70s (can be avoided by choosing Method=3)

Solved with barrier

Root relaxation: objective 4.851753e+07, 244708 iterations, 2120.77 seconds (945.96 work units)
Total elapsed time = 2160.15s (DegenMoves)
Total elapsed time = 2170.90s (DegenMoves)

    Nodes    |    Current Node    |     Objective Bounds      |     Work
 Expl Unexpl |  Obj  Depth IntInf | Incumbent    BestBd   Gap | It/Node Time

     0     0 4.8518e+07    0  309          - 4.8518e+07      -     - 2187s
H    0     0                    4.989692e+07 4.8518e+07  2.76%     - 2298s
     0     0 4.8677e+07    0  134 4.9897e+07 4.8677e+07  2.44%     - 2985s
H    0     0                    4.891467e+07 4.8678e+07  0.48%     - 3019s

Cutting planes:
  Gomory: 4
  Implied bound: 823
  MIR: 142
  Flow cover: 3107
  Relax-and-lift: 21

Explored 1 nodes (315390 simplex iterations) in 3020.08 seconds (1389.92 work units)
Thread count was 20 (of 80 available processors)

Solution count 3: 4.89147e+07 4.89147e+07 4.98969e+07 

Optimal solution found (tolerance 1.00e-02)
Best objective 4.891466623442e+07, best bound 4.867771605288e+07, gap 0.4844%

User-callback calls 1217712, time in user-callback 4.56 sec
